U_100_2.txt

VEHICLE     CAPACITY  LOCATIONS  CUSTOMER  OPTIONS  PRIORITIES  NUMTYPS
10		150		121		100		200		3		4

CUSTOMER  DEMAND
0	 15
1	 19
2	 13
3	 20
4	 12
5	 19
6	 18
7	 16
8	 13
9	 17
10	 13
11	 20
12	 14
13	 14
14	 12
15	 19
16	 10
17	 12
18	 14
19	 18
20	 18
21	 14
22	 20
23	 20
24	 16
25	 11
26	 20
27	 14
28	 19
29	 11
30	 17
31	 17
32	 13
33	 15
34	 10
35	 10
36	 17
37	 13
38	 18
39	 18
40	 20
41	 18
42	 19
43	 12
44	 15
45	 13
46	 18
47	 10
48	 14
49	 10
50	 20
51	 10
52	 11
53	 13
54	 16
55	 19
56	 16
57	 19
58	 19
59	 12
60	 12
61	 14
62	 19
63	 16
64	 18
65	 15
66	 11
67	 12
68	 20
69	 20
70	 10
71	 10
72	 19
73	 13
74	 19
75	 17
76	 12
77	 17
78	 14
79	 17
80	 16
81	 11
82	 16
83	 16
84	 19
85	 12
86	 18
87	 18
88	 18
89	 16
90	 19
91	 15
92	 13
93	 18
94	 17
95	 19
96	 20
97	 15
98	 13
99	 18

LOCATION  XCOORD  YCOORD  CAP  READY  DUE  TYP  SERVICETIME
0		4		2		-1		0		720	 0		0
1		32		34		-1		360		720		 2		6
2		41		24		-1		360		720		 2		6
3		21		20		-1		193		313		 2		6
4		5		15		-1		0		360		 2		6
5		37		7		-1		210		330		 2		6
6		43		30		-1		360		720		 2		6
7		45		12		-1		3		243		 2		6
8		20		10		-1		40		280		 2		6
9		13		39		-1		0		360		 2		6
10		1		32		-1		363		483		 2		6
11		16		17		-1		16		136		 2		6
12		36		44		-1		469		709		 2		6
13		16		30		-1		207		327		 2		6
14		35		27		-1		529		649		 2		6
15		12		25		-1		0		360		 2		6
16		42		32		-1		167		287		 2		6
17		40		8		-1		62		182		 2		6
18		17		20		-1		81		321		 2		6
19		16		50		-1		12		132		 2		6
20		11		9		-1		0		360		 2		6
21		44		45		-1		538		658		 2		6
22		33		9		-1		397		517		 2		6
23		7		15		-1		140		260		 2		6
24		50		35		-1		0		360		 2		6
25		44		43		-1		80		200		 2		6
26		1		1		-1		360		720		 2		6
27		36		30		-1		102		222		 2		6
28		46		17		-1		0		360		 2		6
29		27		39		-1		360		720		 2		6
30		29		48		-1		0		360		 2		6
31		35		43		-1		376		616		 2		6
32		42		48		-1		203		323		 2		6
33		13		16		-1		106		346		 2		6
34		29		10		-1		360		720		 2		6
35		12		36		-1		157		277		 2		6
36		28		15		-1		0		360		 2		6
37		37		18		-1		150		390		 2		6
38		41		19		-1		0		360		 2		6
39		17		49		-1		535		655		 2		6
40		19		18		-1		425		545		 2		6
41		41		39		-1		433		553		 2		6
42		25		3		-1		200		320		 2		6
43		6		10		-1		116		356		 2		6
44		11		49		-1		0		360		 2		6
45		15		31		-1		360		720		 2		6
46		48		7		-1		360		720		 2		6
47		22		9		-1		436		556		 2		6
48		5		25		-1		98		218		 2		6
49		9		27		-1		0		360		 2		6
50		23		3		-1		544		664		 2		6
51		23		30		-1		6		126		 2		6
52		7		48		-1		44		164		 2		6
53		13		48		-1		157		277		 2		6
54		33		33		-1		0		360		 2		6
55		19		48		-1		360		720		 2		6
56		38		24		-1		0		360		 2		6
57		36		29		-1		507		627		 2		6
58		24		38		-1		13		133		 2		6
59		2		12		-1		173		293		 2		6
60		14		9		-1		360		600		 2		6
61		15		45		-1		115		235		 2		6
62		36		47		-1		367		607		 2		6
63		39		22		-1		495		615		 2		6
64		4		31		-1		0		360		 2		6
65		1		36		-1		360		720		 2		6
66		21		44		-1		413		653		 2		6
67		9		11		-1		432		552		 2		6
68		3		24		-1		360		720		 2		6
69		36		41		-1		225		465		 2		6
70		48		13		-1		327		567		 2		6
71		44		49		-1		567		687		 2		6
72		9		10		-1		360		720		 2		6
73		48		12		-1		396		636		 2		6
74		25		37		-1		551		671		 2		6
75		38		12		-1		192		432		 2		6
76		21		13		-1		0		360		 2		6
77		40		13		-1		385		625		 2		6
78		4		29		-1		360		720		 2		6
79		19		24		-1		389		509		 2		6
80		6		45		-1		166		286		 2		6
81		10		2		-1		224		344		 2		6
82		13		17		-1		385		625		 2		6
83		13		32		-1		360		720		 2		6
84		41		5		-1		360		720		 2		6
85		19		38		-1		360		720		 2		6
86		11		11		-1		288		528		 2		6
87		49		7		-1		360		720		 2		6
88		20		47		-1		230		350		 2		6
89		29		9		-1		417		657		 2		6
90		28		6		-1		391		511		 2		6
91		16		1		-1		230		470		 2		6
92		12		3		-1		591		711		 2		6
93		24		30		-1		0		360		 2		6
94		44		4		-1		360		480		 2		6
95		8		16		-1		410		650		 2		6
96		17		24		-1		77		317		 2		6
97		7		1		-1		444		684		 2		6
98		39		21		-1		360		720		 2		6
99		2		7		-1		376		616		 2		6
100		18		35		-1		112		232		 2		6
101		39		23		5		156		636		 1		4
102		7		23		4		0		720		 1		4
103		11		44		5		0		720		 1		4
104		19		9		5		22		502		 1		4
105		9		27		5		30		510		 1		4
106		5		43		5		1		481		 1		4
107		16		41		5		0		720		 1		4
108		41		20		5		195		675		 1		4
109		5		39		4		0		720		 1		4
110		40		26		5		220		700		 1		4
111		39		14		5		43		523		 1		4
112		44		8		5		0		720		 1		4
113		32		35		4		0		720		 1		4
114		17		11		5		204		684		 1		4
115		39		21		5		58		538		 1		4
116		41		7		5		40		520		 1		4
117		43		10		5		78		558		 1		4
118		26		6		5		98		578		 1		4
119		34		16		5		235		715		 1		4
120		30		31		5		0		720		 1		4
OPTION  LOCATION  CUSTOMER  PRIO  SERVICETIME   COST
0		116		0		0		2		0
1		115		1		0		2		0
2		112		2		0		2		0
3		117		3		0		2		0
4		120		4		0		2		0
5		115		5		0		2		0
6		113		6		0		2		0
7		101		7		0		2		0
8		117		8		0		2		0
9		113		9		0		2		0
10		119		10		0		2		0
11		115		11		0		2		0
12		107		12		0		2		0
13		103		13		0		2		0
14		101		14		0		2		0
15		109		15		0		2		0
16		104		16		0		2		0
17		108		17		0		2		0
18		101		18		0		2		0
19		116		19		0		2		0
20		1		20		0		5		0
21		2		21		0		5		0
22		3		22		0		5		0
23		4		23		0		5		0
24		5		24		0		5		0
25		6		25		0		5		0
26		7		26		0		5		0
27		8		27		0		5		0
28		9		28		0		5		0
29		10		29		0		5		0
30		11		30		0		5		0
31		12		31		0		5		0
32		13		32		0		5		0
33		14		33		0		5		0
34		15		34		0		5		0
35		16		35		0		5		0
36		17		36		0		5		0
37		18		37		0		5		0
38		19		38		0		5		0
39		20		39		0		5		0
40		21		40		1		5		0
41		101		40		0		2		0
42		22		41		1		5		0
43		102		41		0		2		0
44		23		42		0		5		0
45		111		42		1		2		0
46		24		43		0		5		0
47		108		43		1		2		0
48		25		44		0		5		0
49		120		44		1		2		0
50		26		45		0		5		0
51		113		45		1		2		0
52		27		46		1		5		0
53		120		46		0		2		0
54		28		47		1		5		0
55		118		47		0		2		0
56		29		48		1		5		0
57		102		48		0		2		0
58		30		49		1		5		0
59		107		49		0		2		0
60		31		50		1		5		0
61		120		50		0		2		0
62		32		51		0		5		0
63		106		51		1		2		0
64		33		52		1		5		0
65		118		52		0		2		0
66		34		53		0		5		0
67		103		53		1		2		0
68		35		54		1		5		0
69		110		54		0		2		0
70		36		55		1		5		0
71		116		55		0		2		0
72		37		56		0		5		0
73		119		56		1		2		0
74		38		57		1		5		0
75		120		57		0		2		0
76		39		58		0		5		0
77		111		58		1		2		0
78		40		59		1		5		0
79		102		59		0		2		0
80		41		60		0		5		0
81		106		60		1		2		0
82		107		60		2		2		0
83		42		61		2		5		0
84		104		61		0		2		0
85		109		61		1		2		0
86		43		62		1		5		0
87		105		62		2		2		0
88		118		62		0		2		0
89		44		63		0		5		0
90		105		63		2		2		0
91		113		63		1		2		0
92		45		64		1		5		0
93		102		64		2		2		0
94		109		64		0		2		0
95		46		65		1		5		0
96		117		65		2		2		0
97		116		65		0		2		0
98		47		66		0		5		0
99		111		66		1		2		0
100		119		66		2		2		0
101		48		67		0		5		0
102		108		67		1		2		0
103		116		67		2		2		0
104		49		68		0		5		0
105		107		68		2		2		0
106		102		68		1		2		0
107		50		69		2		5		0
108		104		69		0		2		0
109		114		69		1		2		0
110		51		70		0		5		0
111		105		70		1		2		0
112		113		70		2		2		0
113		52		71		0		5		0
114		109		71		2		2		0
115		107		71		1		2		0
116		53		72		0		5		0
117		108		72		2		2		0
118		115		72		1		2		0
119		54		73		2		5		0
120		115		73		0		2		0
121		109		73		1		2		0
122		55		74		2		5		0
123		106		74		0		2		0
124		113		74		1		2		0
125		56		75		1		5		0
126		119		75		0		2		0
127		115		75		2		2		0
128		57		76		0		5		0
129		115		76		1		2		0
130		118		76		2		2		0
131		58		77		1		5		0
132		111		77		2		2		0
133		113		77		0		2		0
134		59		78		0		5		0
135		105		78		1		2		0
136		114		78		2		2		0
137		60		79		2		5		0
138		102		79		1		2		0
139		116		79		0		2		0
140		61		80		1		5		0
141		62		80		0		5		0
142		120		80		2		2		0
143		63		81		0		5		0
144		64		81		1		5		0
145		104		81		2		2		0
146		65		82		0		5		0
147		66		82		2		5		0
148		102		82		1		2		0
149		67		83		2		5		0
150		68		83		1		5		0
151		115		83		0		2		0
152		69		84		2		5		0
153		70		84		1		5		0
154		115		84		0		2		0
155		71		85		2		5		0
156		72		85		0		5		0
157		105		85		1		2		0
158		73		86		0		5		0
159		74		86		2		5		0
160		116		86		1		2		0
161		75		87		0		5		0
162		76		87		2		5		0
163		117		87		1		2		0
164		77		88		2		5		0
165		78		88		0		5		0
166		113		88		1		2		0
167		79		89		2		5		0
168		80		89		0		5		0
169		108		89		1		2		0
170		81		90		2		5		0
171		82		90		0		5		0
172		104		90		1		2		0
173		83		91		2		5		0
174		84		91		0		5		0
175		116		91		1		2		0
176		85		92		0		5		0
177		86		92		1		5		0
178		102		92		2		2		0
179		87		93		2		5		0
180		88		93		1		5		0
181		116		93		0		2		0
182		89		94		2		5		0
183		90		94		0		5		0
184		106		94		1		2		0
185		91		95		2		5		0
186		92		95		0		5		0
187		114		95		1		2		0
188		93		96		0		5		0
189		94		96		2		5		0
190		102		96		1		2		0
191		95		97		2		5		0
192		96		97		1		5		0
193		104		97		0		2		0
194		97		98		1		5		0
195		98		98		0		5		0
196		120		98		2		2		0
197		99		99		0		5		0
198		100		99		1		5		0
199		105		99		2		2		0
